k = 80;
b = 40;
AtomicConstraints =  [|
2, 41|
	2, 54|
	2, 15|
	2, 16|
	2, 55|
	2, 17|
	2, 18|
	2, 19|
	2, 20|
	2, 21|
	2, 22|
	2, 23|
	2, 56|
	2, 57|
	2, 58|
	2, 24|
	2, 25|
	2, 26|
	2, 37|
	2, 72|
	2, 40|
	2, 77|
	2, 68|
	2, 67|
	2, 70|
	2, 80|
	2, 65|
	2, 66|
	2, 73|
	2, 74|
	2, 75|
	2, 78|
	2, 79|
	2, 76|
	2, 69|
	2, 43|
	3, 41|
	3, 54|
	3, 15|
	3, 16|
	3, 55|
	3, 17|
	3, 18|
	3, 19|
	3, 20|
	3, 21|
	3, 22|
	3, 23|
	3, 56|
	3, 57|
	3, 58|
	3, 24|
	3, 25|
	3, 26|
	3, 40|
	3, 77|
	3, 68|
	3, 67|
	3, 70|
	3, 80|
	3, 65|
	3, 66|
	3, 73|
	3, 74|
	3, 75|
	3, 78|
	3, 79|
	3, 76|
	3, 69|
	3, 43|
	4, 41|
	4, 54|
	4, 15|
	4, 16|
	4, 55|
	4, 17|
	4, 18|
	4, 19|
	4, 20|
	4, 21|
	4, 22|
	4, 23|
	4, 56|
	4, 57|
	4, 58|
	4, 24|
	4, 25|
	4, 26|
	4, 40|
	4, 77|
	4, 68|
	4, 67|
	4, 70|
	4, 80|
	4, 65|
	4, 66|
	4, 73|
	4, 74|
	4, 75|
	4, 78|
	4, 79|
	4, 76|
	4, 69|
	4, 43|
	5, 41|
	5, 54|
	5, 15|
	5, 16|
	5, 55|
	5, 17|
	5, 18|
	5, 19|
	5, 20|
	5, 21|
	5, 22|
	5, 23|
	5, 56|
	5, 57|
	5, 58|
	5, 24|
	5, 25|
	5, 26|
	5, 40|
	5, 77|
	5, 68|
	5, 67|
	5, 70|
	5, 80|
	5, 65|
	5, 66|
	5, 73|
	5, 74|
	5, 75|
	5, 78|
	5, 79|
	5, 76|
	5, 69|
	5, 43|
	6, 41|
	6, 54|
	6, 15|
	6, 16|
	6, 55|
	6, 17|
	6, 18|
	6, 19|
	6, 20|
	6, 21|
	6, 22|
	6, 23|
	6, 56|
	6, 57|
	6, 58|
	6, 24|
	6, 25|
	6, 26|
	6, 40|
	6, 77|
	6, 68|
	6, 67|
	6, 70|
	6, 80|
	6, 65|
	6, 66|
	6, 73|
	6, 74|
	6, 75|
	6, 78|
	6, 79|
	6, 76|
	6, 69|
	6, 43|
	7, 41|
	7, 54|
	7, 15|
	7, 16|
	7, 55|
	7, 17|
	7, 18|
	7, 19|
	7, 20|
	7, 21|
	7, 22|
	7, 23|
	7, 56|
	7, 57|
	7, 58|
	7, 24|
	7, 25|
	7, 26|
	7, 40|
	7, 77|
	7, 68|
	7, 67|
	7, 70|
	7, 80|
	7, 65|
	7, 66|
	7, 73|
	7, 74|
	7, 75|
	7, 78|
	7, 79|
	7, 76|
	7, 69|
	7, 43|
	8, 41|
	8, 54|
	8, 15|
	8, 16|
	8, 55|
	8, 17|
	8, 18|
	8, 19|
	8, 20|
	8, 21|
	8, 22|
	8, 23|
	8, 56|
	8, 57|
	8, 58|
	8, 24|
	8, 25|
	8, 26|
	8, 40|
	8, 77|
	8, 68|
	8, 67|
	8, 70|
	8, 80|
	8, 65|
	8, 66|
	8, 73|
	8, 74|
	8, 75|
	8, 78|
	8, 79|
	8, 76|
	8, 69|
	8, 43|
	1, 41|
	1, 54|
	1, 15|
	1, 16|
	1, 55|
	1, 17|
	1, 18|
	1, 19|
	1, 20|
	1, 21|
	1, 22|
	1, 23|
	1, 56|
	1, 57|
	1, 58|
	1, 24|
	1, 25|
	1, 26|
	1, 59|
	1, 33|
	1, 34|
	1, 35|
	1, 36|
	1, 37|
	1, 64|
	1, 60|
	1, 61|
	1, 62|
	1, 63|
	1, 71|
	1, 72|
	1, 38|
	1, 39|
	1, 40|
	1, 77|
	1, 68|
	1, 67|
	1, 70|
	1, 80|
	1, 65|
	1, 66|
	1, 73|
	1, 74|
	1, 75|
	1, 78|
	1, 79|
	1, 76|
	1, 69|
	1, 43|
	10, 1|
	10, 9|
	10, 12|
	10, 41|
	10, 54|
	10, 15|
	10, 16|
	10, 55|
	10, 17|
	10, 18|
	10, 19|
	10, 20|
	10, 21|
	10, 22|
	10, 23|
	10, 56|
	10, 57|
	10, 58|
	10, 24|
	10, 25|
	10, 26|
	10, 59|
	10, 33|
	10, 34|
	10, 35|
	10, 36|
	10, 37|
	10, 64|
	10, 60|
	10, 61|
	10, 62|
	10, 63|
	10, 71|
	10, 72|
	10, 38|
	10, 39|
	10, 40|
	10, 77|
	10, 68|
	10, 67|
	10, 70|
	10, 80|
	10, 65|
	10, 66|
	10, 73|
	10, 74|
	10, 75|
	10, 78|
	10, 79|
	10, 76|
	10, 69|
	10, 43|
	11, 1|
	11, 9|
	11, 12|
	11, 49|
	11, 41|
	11, 54|
	11, 15|
	11, 16|
	11, 55|
	11, 17|
	11, 18|
	11, 19|
	11, 20|
	11, 21|
	11, 22|
	11, 23|
	11, 56|
	11, 57|
	11, 58|
	11, 24|
	11, 25|
	11, 26|
	11, 59|
	11, 33|
	11, 34|
	11, 35|
	11, 36|
	11, 37|
	11, 64|
	11, 60|
	11, 61|
	11, 62|
	11, 63|
	11, 71|
	11, 72|
	11, 38|
	11, 39|
	11, 40|
	11, 77|
	11, 68|
	11, 67|
	11, 70|
	11, 80|
	11, 65|
	11, 66|
	11, 73|
	11, 74|
	11, 75|
	11, 78|
	11, 79|
	11, 76|
	11, 69|
	11, 43|
	9, 41|
	9, 54|
	9, 15|
	9, 16|
	9, 55|
	9, 17|
	9, 18|
	9, 19|
	9, 20|
	9, 21|
	9, 22|
	9, 23|
	9, 56|
	9, 57|
	9, 58|
	9, 24|
	9, 25|
	9, 26|
	9, 59|
	9, 33|
	9, 34|
	9, 35|
	9, 36|
	9, 37|
	9, 64|
	9, 60|
	9, 61|
	9, 62|
	9, 63|
	9, 71|
	9, 72|
	9, 38|
	9, 39|
	9, 40|
	9, 77|
	9, 68|
	9, 67|
	9, 70|
	9, 80|
	9, 65|
	9, 66|
	9, 73|
	9, 74|
	9, 75|
	9, 78|
	9, 79|
	9, 76|
	9, 69|
	9, 43|
	13, 9|
	13, 12|
	13, 49|
	13, 42|
	13, 41|
	13, 54|
	13, 15|
	13, 16|
	13, 55|
	13, 17|
	13, 18|
	13, 19|
	13, 20|
	13, 21|
	13, 22|
	13, 23|
	13, 56|
	13, 57|
	13, 58|
	13, 24|
	13, 25|
	13, 26|
	13, 33|
	13, 34|
	13, 35|
	13, 36|
	13, 37|
	13, 64|
	13, 60|
	13, 61|
	13, 62|
	13, 63|
	13, 71|
	13, 72|
	13, 38|
	13, 39|
	13, 40|
	13, 77|
	13, 68|
	13, 67|
	13, 70|
	13, 80|
	13, 65|
	13, 66|
	13, 73|
	13, 74|
	13, 75|
	13, 78|
	13, 79|
	13, 76|
	13, 69|
	13, 43|
	14, 12|
	14, 49|
	14, 42|
	14, 50|
	14, 41|
	14, 54|
	14, 15|
	14, 16|
	14, 55|
	14, 17|
	14, 18|
	14, 19|
	14, 20|
	14, 21|
	14, 22|
	14, 23|
	14, 56|
	14, 57|
	14, 58|
	14, 24|
	14, 25|
	14, 26|
	14, 33|
	14, 34|
	14, 35|
	14, 36|
	14, 37|
	14, 64|
	14, 61|
	14, 62|
	14, 63|
	14, 71|
	14, 72|
	14, 38|
	14, 39|
	14, 40|
	14, 77|
	14, 68|
	14, 67|
	14, 70|
	14, 80|
	14, 65|
	14, 66|
	14, 73|
	14, 74|
	14, 75|
	14, 78|
	14, 79|
	14, 76|
	14, 69|
	14, 43|
	12, 41|
	12, 54|
	12, 15|
	12, 16|
	12, 55|
	12, 17|
	12, 18|
	12, 19|
	12, 20|
	12, 21|
	12, 22|
	12, 23|
	12, 56|
	12, 57|
	12, 58|
	12, 24|
	12, 25|
	12, 26|
	12, 33|
	12, 34|
	12, 35|
	12, 36|
	12, 37|
	12, 64|
	12, 60|
	12, 61|
	12, 62|
	12, 63|
	12, 71|
	12, 72|
	12, 38|
	12, 39|
	12, 40|
	12, 77|
	12, 68|
	12, 67|
	12, 70|
	12, 80|
	12, 65|
	12, 66|
	12, 73|
	12, 74|
	12, 75|
	12, 78|
	12, 79|
	12, 76|
	12, 69|
	12, 43|
	49, 41|
	49, 54|
	49, 15|
	49, 16|
	49, 55|
	49, 17|
	49, 18|
	49, 19|
	49, 20|
	49, 21|
	49, 22|
	49, 23|
	49, 56|
	49, 57|
	49, 58|
	49, 24|
	49, 25|
	49, 26|
	49, 33|
	49, 34|
	49, 35|
	49, 36|
	49, 37|
	49, 64|
	49, 61|
	49, 62|
	49, 63|
	49, 71|
	49, 72|
	49, 38|
	49, 39|
	49, 40|
	49, 77|
	49, 68|
	49, 67|
	49, 70|
	49, 80|
	49, 65|
	49, 66|
	49, 73|
	49, 74|
	49, 75|
	49, 78|
	49, 79|
	49, 76|
	49, 69|
	49, 43|
	42, 41|
	42, 54|
	42, 15|
	42, 16|
	42, 55|
	42, 17|
	42, 18|
	42, 19|
	42, 20|
	42, 21|
	42, 22|
	42, 23|
	42, 56|
	42, 57|
	42, 58|
	42, 24|
	42, 25|
	42, 26|
	42, 33|
	42, 34|
	42, 35|
	42, 36|
	42, 37|
	42, 64|
	42, 62|
	42, 63|
	42, 71|
	42, 72|
	42, 38|
	42, 39|
	42, 40|
	42, 77|
	42, 68|
	42, 67|
	42, 70|
	42, 80|
	42, 65|
	42, 66|
	42, 73|
	42, 74|
	42, 75|
	42, 78|
	42, 79|
	42, 76|
	42, 69|
	42, 43|
	50, 41|
	50, 54|
	50, 15|
	50, 16|
	50, 55|
	50, 17|
	50, 18|
	50, 19|
	50, 20|
	50, 21|
	50, 22|
	50, 23|
	50, 56|
	50, 57|
	50, 58|
	50, 24|
	50, 25|
	50, 26|
	50, 33|
	50, 34|
	50, 35|
	50, 36|
	50, 37|
	50, 64|
	50, 63|
	50, 71|
	50, 72|
	50, 39|
	50, 40|
	50, 77|
	50, 68|
	50, 67|
	50, 70|
	50, 80|
	50, 65|
	50, 66|
	50, 73|
	50, 74|
	50, 75|
	50, 78|
	50, 79|
	50, 76|
	50, 69|
	50, 43|
	51, 41|
	51, 54|
	51, 15|
	51, 16|
	51, 55|
	51, 17|
	51, 18|
	51, 19|
	51, 20|
	51, 21|
	51, 22|
	51, 23|
	51, 56|
	51, 57|
	51, 58|
	51, 24|
	51, 25|
	51, 26|
	51, 34|
	51, 35|
	51, 36|
	51, 37|
	51, 64|
	51, 71|
	51, 72|
	51, 40|
	51, 77|
	51, 68|
	51, 67|
	51, 70|
	51, 80|
	51, 65|
	51, 66|
	51, 73|
	51, 74|
	51, 75|
	51, 78|
	51, 79|
	51, 76|
	51, 69|
	51, 43|
	52, 41|
	52, 54|
	52, 15|
	52, 16|
	52, 55|
	52, 17|
	52, 18|
	52, 19|
	52, 20|
	52, 21|
	52, 22|
	52, 23|
	52, 56|
	52, 57|
	52, 58|
	52, 24|
	52, 25|
	52, 26|
	52, 35|
	52, 36|
	52, 37|
	52, 64|
	52, 71|
	52, 72|
	52, 40|
	52, 77|
	52, 68|
	52, 67|
	52, 70|
	52, 80|
	52, 65|
	52, 66|
	52, 73|
	52, 74|
	52, 75|
	52, 78|
	52, 79|
	52, 76|
	52, 69|
	52, 43|
	53, 41|
	53, 54|
	53, 15|
	53, 16|
	53, 55|
	53, 17|
	53, 18|
	53, 19|
	53, 20|
	53, 21|
	53, 22|
	53, 23|
	53, 56|
	53, 57|
	53, 58|
	53, 24|
	53, 25|
	53, 26|
	53, 36|
	53, 37|
	53, 64|
	53, 71|
	53, 72|
	53, 40|
	53, 77|
	53, 68|
	53, 67|
	53, 70|
	53, 80|
	53, 65|
	53, 66|
	53, 73|
	53, 74|
	53, 75|
	53, 78|
	53, 79|
	53, 76|
	53, 69|
	53, 43|
	16, 41|
	16, 15|
	54, 41|
	54, 15|
	17, 41|
	17, 54|
	17, 15|
	17, 16|
	18, 41|
	18, 54|
	18, 15|
	18, 16|
	18, 55|
	18, 17|
	19, 41|
	19, 54|
	19, 15|
	19, 16|
	19, 55|
	19, 17|
	19, 18|
	19, 56|
	20, 41|
	20, 54|
	20, 15|
	20, 16|
	20, 55|
	20, 17|
	20, 18|
	20, 19|
	20, 56|
	20, 57|
	21, 41|
	21, 54|
	21, 15|
	21, 16|
	21, 55|
	21, 17|
	21, 18|
	21, 19|
	21, 20|
	21, 56|
	21, 57|
	21, 58|
	22, 41|
	22, 54|
	22, 15|
	22, 16|
	22, 55|
	22, 17|
	22, 18|
	22, 19|
	22, 20|
	22, 21|
	22, 56|
	22, 57|
	22, 58|
	22, 24|
	23, 41|
	23, 54|
	23, 15|
	23, 16|
	23, 55|
	23, 17|
	23, 18|
	23, 19|
	23, 20|
	23, 21|
	23, 22|
	23, 56|
	23, 57|
	23, 58|
	23, 24|
	23, 25|
	55, 41|
	55, 54|
	55, 15|
	55, 16|
	56, 41|
	56, 54|
	56, 15|
	56, 16|
	56, 55|
	56, 17|
	57, 41|
	57, 54|
	57, 15|
	57, 16|
	57, 55|
	57, 17|
	57, 18|
	57, 56|
	58, 41|
	58, 54|
	58, 15|
	58, 16|
	58, 55|
	58, 17|
	58, 18|
	58, 19|
	58, 56|
	58, 57|
	24, 41|
	24, 54|
	24, 15|
	24, 16|
	24, 55|
	24, 17|
	24, 18|
	24, 19|
	24, 20|
	24, 56|
	24, 57|
	24, 58|
	25, 41|
	25, 54|
	25, 15|
	25, 16|
	25, 55|
	25, 17|
	25, 18|
	25, 19|
	25, 20|
	25, 21|
	25, 56|
	25, 57|
	25, 58|
	25, 24|
	26, 41|
	26, 54|
	26, 15|
	26, 16|
	26, 55|
	26, 17|
	26, 18|
	26, 19|
	26, 20|
	26, 21|
	26, 22|
	26, 56|
	26, 57|
	26, 58|
	26, 24|
	26, 25|
	46, 27|
	46, 28|
	46, 47|
	46, 48|
	46, 29|
	46, 30|
	46, 80|
	46, 66|
	27, 28|
	27, 80|
	27, 65|
	27, 66|
	28, 80|
	28, 65|
	28, 66|
	44, 46|
	44, 27|
	44, 28|
	44, 45|
	44, 47|
	44, 48|
	44, 29|
	44, 30|
	44, 32|
	45, 46|
	45, 27|
	45, 28|
	45, 47|
	45, 48|
	45, 29|
	45, 30|
	47, 27|
	47, 28|
	47, 48|
	47, 29|
	47, 30|
	48, 27|
	48, 28|
	48, 29|
	48, 30|
	29, 27|
	29, 28|
	29, 30|
	30, 27|
	30, 28|
	31, 46|
	31, 27|
	31, 28|
	31, 45|
	31, 47|
	31, 48|
	31, 29|
	31, 30|
	31, 32|
	31, 80|
	31, 66|
	32, 46|
	32, 27|
	32, 28|
	32, 47|
	32, 48|
	32, 29|
	32, 30|
	32, 80|
	32, 66|
	59, 33|
	59, 38|
	59, 39|
	60, 33|
	60, 34|
	60, 38|
	60, 39|
	61, 33|
	61, 34|
	61, 35|
	61, 39|
	62, 33|
	62, 34|
	62, 35|
	62, 36|
	63, 34|
	63, 35|
	63, 36|
	63, 37|
	71, 35|
	71, 36|
	71, 37|
	71, 64|
	72, 36|
	72, 37|
	72, 64|
	40, 77|
	40, 69|
	40, 43|
	73, 77|
	73, 68|
	73, 69|
	73, 43|
	74, 77|
	74, 68|
	74, 67|
	74, 43|
	75, 77|
	75, 68|
	75, 67|
	75, 70|
	78, 68|
	78, 67|
	78, 70|
	78, 80|
	79, 67|
	79, 70|
	79, 80|
	79, 65|
	76, 70|
	76, 80|
	76, 65|
	76, 66|];
DisjunctiveConstraints =  [|2, 53, 2, 3|
	3, 2, 3, 4|
	4, 3, 4, 5|
	5, 4, 5, 6|
	6, 5, 6, 7|
	7, 6, 7, 8|
	1, 19, 1, 59|
	10, 41, 10, 1|
	10, 19, 10, 59|
	11, 10, 11, 13|
	11, 49, 11, 9|
	11, 20, 11, 60|
	9, 1, 9, 12|
	9, 20, 9, 60|
	13, 11, 13, 14|
	13, 52, 13, 12|
	13, 21, 13, 61|
	14, 49, 14, 9|
	14, 22, 14, 62|
	14, 78, 14, 38|
	12, 9, 12, 49|
	12, 21, 12, 61|
	12, 78, 12, 38|
	49, 12, 49, 42|
	49, 22, 49, 62|
	49, 78, 49, 38|
	49, 79, 49, 39|
	42, 49, 42, 50|
	42, 23, 42, 63|
	42, 73, 42, 33|
	42, 79, 42, 39|
	50, 42, 50, 51|
	50, 74, 50, 34|
	51, 50, 51, 52|
	51, 71, 51, 31|
	51, 75, 51, 35|
	52, 51, 52, 53|
	52, 24, 52, 64|
	52, 71, 52, 31|
	52, 72, 52, 32|
	52, 76, 52, 36|
	53, 52, 53, 2|
	53, 72, 53, 32|
	53, 77, 53, 37|
	53, 76, 53, 36|
	20, 15, 20, 55|
	21, 15, 21, 55|
	21, 16, 21, 56|
	22, 15, 22, 55|
	22, 16, 22, 56|
	22, 17, 22, 57|
	23, 15, 23, 55|
	23, 16, 23, 56|
	23, 17, 23, 57|
	23, 18, 23, 58|
	58, 41, 58, 1|
	24, 41, 24, 1|
	24, 54, 24, 14|
	24, 19, 59, 24|
	25, 41, 25, 1|
	25, 54, 25, 14|
	25, 19, 59, 25|
	25, 20, 60, 25|
	26, 41, 26, 1|
	26, 54, 26, 14|
	26, 19, 59, 26|
	26, 20, 60, 26|
	26, 21, 61, 26|
	46, 68, 46, 28|
	46, 67, 46, 27|
	27, 66, 27, 26|
	28, 66, 28, 26|
	44, 27, 67, 44|
	44, 28, 68, 44|
	44, 70, 44, 30|
	45, 27, 67, 45|
	45, 28, 68, 45|
	47, 27, 67, 47|
	47, 28, 68, 47|
	48, 27, 67, 48|
	48, 28, 68, 48|
	29, 27, 67, 29|
	29, 28, 68, 29|
	29, 40, 80, 29|
	30, 28, 68, 30|
	30, 40, 80, 30|
	30, 69, 29, 30|
	31, 68, 31, 28|
	31, 67, 31, 27|
	32, 68, 32, 28|
	32, 67, 32, 27|
	33, 39, 33, 34|
	34, 33, 34, 35|
	35, 34, 35, 36|
	36, 35, 36, 37|
	37, 36, 37, 64|
	59, 78, 59, 38|
	60, 59, 60, 61|
	60, 79, 60, 39|
	61, 60, 61, 62|
	61, 73, 61, 33|
	62, 61, 62, 63|
	62, 74, 62, 34|
	63, 62, 63, 71|
	63, 75, 63, 35|
	71, 63, 71, 72|
	39, 38, 39, 33|
	77, 43, 77, 68|
	68, 77, 68, 67|
	67, 68, 67, 70|
	70, 67, 70, 80|
	80, 70, 80, 65|
	65, 80, 65, 66|
	73, 40, 73, 74|
	74, 73, 74, 75|
	75, 74, 75, 78|
	78, 75, 78, 79|
	79, 78, 79, 76|
	43, 69, 43, 77|];
SoftAtomicConstraints =  [|
53, 2|
2, 3|
3, 4|
4, 5|
5, 6|
6, 7|
7, 8|
1, 9|
10, 11|
9, 12|
11, 13|
13, 14|
21, 24|
22, 25|
23, 26|
39, 33|
33, 34|
34, 35|
35, 36|
36, 37|
38, 39|
15, 41|
49, 42|
69, 43|
31, 44|
32, 45|
12, 49|
42, 50|
50, 51|
51, 52|
52, 53|
16, 54|
17, 55|
18, 56|
19, 57|
20, 58|
59, 60|
60, 61|
61, 62|
62, 63|
37, 64|
80, 65|
65, 66|
68, 67|
77, 68|
67, 70|
63, 71|
71, 72|
40, 73|
73, 74|
74, 75|
79, 76|
43, 77|
75, 78|
78, 79|
70, 80|];
DirectSuccessors =  [1,
9,
10,
11,
12,
13,
14,
49,
59,
33,
34,
35,
60,
61,
62,
63,
38,
39];
